c Created with the Wolfram Language : www.wolfram.com
c 
p edge 100 224
e 2 10
e 6 11
e 8 15
e 9 15
e 10 16
e 4 17
e 10 17
e 10 19
e 15 21
e 10 22
e 10 23
e 15 23
e 18 24
e 17 25
e 3 26
e 21 27
e 4 28
e 20 28
e 24 28
e 22 29
e 15 31
e 19 34
e 15 35
e 1 37
e 6 37
e 10 37
e 14 37
e 18 37
e 36 37
e 37 38
e 19 39
e 23 39
e 27 39
e 12 41
e 1 42
e 25 42
e 34 42
e 23 43
e 36 43
e 14 45
e 38 45
e 4 46
e 23 47
e 39 47
e 2 48
e 10 48
e 32 48
e 35 49
e 38 49
e 4 50
e 45 50
e 8 51
e 30 51
e 10 52
e 17 52
e 1 53
e 6 53
e 19 53
e 20 53
e 38 53
e 41 53
e 4 54
e 5 54
e 11 54
e 35 54
e 17 55
e 6 56
e 40 56
e 47 56
e 25 57
e 28 58
e 43 58
e 1 59
e 23 59
e 1 60
e 24 60
e 25 60
e 42 60
e 7 62
e 21 62
e 34 62
e 57 62
e 29 63
e 36 63
e 42 63
e 8 64
e 16 64
e 58 64
e 63 64
e 14 65
e 34 65
e 43 66
e 65 66
e 58 68
e 7 69
e 59 69
e 60 69
e 13 70
e 59 70
e 3 71
e 26 71
e 34 71
e 56 71
e 62 71
e 67 71
e 68 71
e 16 72
e 18 72
e 19 72
e 40 72
e 69 72
e 14 73
e 19 73
e 26 73
e 15 74
e 39 74
e 40 74
e 72 74
e 9 75
e 33 75
e 36 75
e 49 75
e 68 75
e 21 76
e 27 76
e 44 76
e 27 77
e 28 77
e 31 77
e 35 77
e 45 77
e 12 78
e 34 78
e 41 78
e 65 78
e 10 79
e 15 79
e 55 79
e 66 79
e 70 79
e 76 79
e 2 80
e 39 80
e 47 80
e 9 81
e 40 81
e 41 81
e 40 82
e 64 82
e 28 83
e 39 83
e 51 83
e 56 83
e 82 83
e 15 84
e 29 84
e 65 84
e 68 84
e 18 85
e 59 85
e 28 86
e 47 86
e 52 86
e 60 86
e 75 86
e 7 87
e 17 87
e 56 87
e 1 88
e 11 88
e 19 88
e 52 88
e 26 89
e 35 89
e 1 90
e 8 90
e 33 90
e 46 90
e 7 91
e 14 91
e 31 91
e 46 91
e 57 91
e 56 92
e 64 92
e 75 92
e 86 92
e 2 93
e 36 93
e 70 93
e 4 94
e 16 94
e 39 94
e 57 94
e 63 94
e 72 94
e 8 95
e 19 95
e 22 95
e 78 95
e 29 96
e 33 96
e 49 96
e 66 96
e 72 96
e 82 96
e 88 96
e 9 97
e 22 97
e 60 97
e 69 97
e 75 97
e 88 97
e 19 98
e 61 98
e 81 98
e 19 99
e 45 99
e 82 99
e 96 99
e 97 99
e 14 100
e 72 100
e 89 100
